10J3M/DAT/10J3MNTA-1.dat
10 3
21.1547 447.5213
31.8723 1015.8435
19.2452 370.3777
32.9904 1088.3665
29.3738 862.8201
20.0945 403.7889
35.1451 1235.1781
20.9608 439.3551
21.426 459.0735
30.5342 932.3374
1813.6655