10J3M/SOL/10J3MNTA-1.sol
solution status: optimal solution found
objective value:                     65.3543879643806
x#1#2                                               1 	(obj:0)
x#2#3                                               1 	(obj:0)
x#4#1                               0.939924682708865 	(obj:0)
x#4#2                              0.0600753172911347 	(obj:0)
x#5#1                                               1 	(obj:0)
x#6#2                              0.0841684947688702 	(obj:0)
x#6#3                               0.852993063483089 	(obj:0)
x#7#2                                               1 	(obj:0)
x#8#2                               0.194230027966781 	(obj:0)
x#8#3                               0.805769972033219 	(obj:0)
x#10#1                              0.682187743208046 	(obj:0)
x#10#2                              0.317812256791954 	(obj:0)
z                                    65.3543879643806 	(obj:1)
